#Arquivo FDF de amostra para o programa SIESTA
#..............................................

#..............................................
#                   Names
#..............................................

SystemName            C2    
SystemLabel           C2

#..............................................
#            Species and Atons
#..............................................
 
NumberOfAtoms              2           
NumberOfSpecies            1  

%block Chemical_Species_label
  1  6  C
%endblock Chemical_Species_label

#..............................................
#                Lattice
#..............................................


LatticeConstant 2.468 Ang

%block LatticeParameters               
  1.0   1.0   8.0    90  90  120     
%endblock LatticeParameters

BandLinesScale            ReciprocalLatticeVectors

%block BandLines
1     0.00000   0.00000   0.00000  \Gamma
100   0.66656  -0.33343   0.00000  K
100   0.50000   0.00000   0.00000  M
100   0.00000   0.00000   0.00000  \Gamma
%endblock BandLines

#..............................................
#                  LDOS
#..............................................

%block LocalDensityOfStates
-5 -4 eV
%endblock LocalDensityOfStates

SaveRho T

#..............................................
#               K-points
#..............................................

#KgridCutoff               25.0000 Ang

%block kgrid_Monkhorst_Pack
14   0    0    0.5
0    14   0    0.5 
0    0    1    0.5
%endblock kgrid_Monkhorst_Pack

#..............................................
#                  PAO
#..............................................  
        
PAO.BasisType              split        
PAO.BasisSize              DZP                 #  Esses três comandos são redundantes, se     
PAO.EnergyShift            0.01  Ry            #  não estiverem especificados o siesta
PAO.SplitNorm              0.15                #  os coloca automaticamente com seus valores padrões 

#.............................................
#              Approximation
#.............................................     

SpinPolarized             F             
MeshCutoff                500.0  Ry       
XC.functional             GGA           
XC.authors                PBE           

#.............................................
#               SCF options
#.............................................

Harris.Functional         F                    #
SCF.MustConverge          F                    #
DM.PulayOnFile            F                    #
MaxSCFIterations          1000
DM.NumberPulay            5
DM.MixingWeight           0.10          
DM.Tolerance              1.d-5
DM.UseSaveDM              yes
NeglNonOverlapInt         false         
SolutionMethod            Diagon        
ElectronicTemperature     0.0019 Ry
                             
#.............................................
#               MD options
#.............................................
  
MD.TypeOfRun              CG 
MD.VariableCell           T                                               
MD.NumCGsteps             250                                             
MD.MaxCGDispl             0.1 Bohr                                          
MD.MaxForceTol            0.005 eV/Ang                                      
MD.InitialTimeStep        1            
MD.FinalTimeStep          500          
MD.LengthTimeStep         1.d0 fs                           
MD.TargetPressure         0.0   Ry/Bohr**3 
MD.MaxStressTol           0.0001 eV/Ang**3 
MD.UseSaveXV              T  


#............................................
#                Write
#............................................


WriteSiestaDim            F           
WriteMullikenPop          1 
WriteCoorXmol             T             
WriteMDXmol               T
WriteCoorStep             F  
 
#................................................
#              PROPRIEDADES OPTICAS                      
#................................................
OpticalCalculation              T
Optical.EnergyMinimum           0  eV
Optical.EnergyMaximum           20 eV
Optical.Broaden                 0.2 eV           # Uma ampliação gaussiana será aplicada aos valores de frequência.
Optical.Scissor                 0 Ry

%block Optical.Mesh
15 15 1
%endblock Optical.Mesh

Optical.OffsetMesh              F	 
Optical.PolarizationType        unpolarized      #tipos de polarização: polarized, unpolarized e polycrystal

%block Optical.Vector                            # bloco para especificar a direção do vetor de propagação da luz
0.0 0.0 1.0                                      #
%endblock Optical.Vector                         #

#..............................................
#         Atomic coordinates
#..............................................


AtomicCoordinatesFormat  ScaledByLatticeVectors 
                                                                                                                            
%block AtomicCoordinatesAndAtomicSpecies
    0.33333   0.66666   0.00000  1
    0.66666   0.33333   0.00000  1                
%endblock AtomicCoordinatesAndAtomicSpecies

#...........................................
